c Random generated cnf formula, satisfiable: false
p cnf 10 50
9 -10 8 0
-4 10 -1 0
7 10 -1 0
6 -1 4 0
-9 2 -4 0
-3 -1 -2 0
-6 1 -8 0
9 6 -8 0
9 1 -5 0
6 7 1 0
-3 1 -10 0
4 -8 -3 0
7 -2 -9 0
8 5 4 0
-2 -7 10 0
-7 -8 6 0
-9 -1 -7 0
3 2 8 0
-9 -6 -2 0
-6 -8 10 0
4 3 10 0
-2 -7 -4 0
7 -1 5 0
-6 -7 9 0
-7 -6 -4 0
-2 -7 -3 0
8 -6 1 0
-3 7 -5 0
6 7 -8 0
-2 7 -4 0
-7 1 -4 0
-4 -9 5 0
-1 7 4 0
-9 2 -8 0
5 -6 -10 0
1 -2 3 0
3 -6 4 0
6 -5 -7 0
8 -9 -2 0
9 3 6 0
-7 1 -5 0
-2 -3 5 0
7 -9 -6 0
-1 3 9 0
-1 -10 5 0
-3 -5 6 0
7 -10 4 0
7 -6 -10 0
1 -8 10 0
1 -9 -10 0
